units		 real
atom_style	 full

read_data	 W2-dimer-data.water

pair_style   reax/c control.reaxc.water
pair_coeff   * * ffield_060614.reax H O

neighbor     30.0 nsq
neigh_modify once yes

fix          qeq all qeq/reax 1 0.0 10.0 1.0e-7 reax/c

